(declare-fun conv.i.i.i.i_13_223 () (_ BitVec 32))
(declare-fun phi.bo_13_225 () (_ BitVec 32))
(declare-fun i.i.i.i.i.i.neg_13_222 () (_ BitVec 32))
(declare-fun num.4.i.i.i.i.i_13_219 () (_ BitVec 32))
(declare-fun word.addr.4.lobit.i.i.i.i.i.neg_13_221 () (_ BitVec 64))
(declare-fun word.addr.4.i.i.i.i.i_13_218 () (_ BitVec 64))
(declare-fun num.3.i.i.i.i.i_13_211 () (_ BitVec 32))
(declare-fun sub22.i.i.i.i.i_13_215 () (_ BitVec 32))
(declare-fun tobool20.not.i.i.i.i.i_13_213 () (_ BitVec 1))
(declare-fun word.addr.3.i.i.i.i.i_13_210 () (_ BitVec 64))
(declare-fun shl23.i.i.i.i.i_13_217 () (_ BitVec 64))
(declare-fun num.2.i.i.i.i.i_13_203 () (_ BitVec 32))
(declare-fun sub16.i.i.i.i.i_13_207 () (_ BitVec 32))
(declare-fun tobool14.not.i.i.i.i.i_13_205 () (_ BitVec 1))
(declare-fun word.addr.2.i.i.i.i.i_13_202 () (_ BitVec 64))
(declare-fun shl17.i.i.i.i.i_13_209 () (_ BitVec 64))
(declare-fun num.1.i.i.i.i.i_13_195 () (_ BitVec 32))
(declare-fun sub10.i.i.i.i.i_13_199 () (_ BitVec 32))
(declare-fun tobool8.not.i.i.i.i.i_13_197 () (_ BitVec 1))
(declare-fun word.addr.1.i.i.i.i.i_13_194 () (_ BitVec 64))
(declare-fun shl11.i.i.i.i.i_13_201 () (_ BitVec 64))
(declare-fun spec.select17.i.i.i.i.i_13_187 () (_ BitVec 32))
(declare-fun sub4.i.i.i.i.i_13_191 () (_ BitVec 32))
(declare-fun tobool2.not.i.i.i.i.i_13_189 () (_ BitVec 1))
(declare-fun spec.select.i.i.i.i.i_13_184 () (_ BitVec 64))
(declare-fun shl5.i.i.i.i.i_13_193 () (_ BitVec 64))
(declare-fun tobool.not.i.i.i.i.i_13_181 () (_ BitVec 1))
(declare-fun xor.i.i.i_13_177 () (_ BitVec 64))
(declare-fun shl.i.i.i.i.i_13_183 () (_ BitVec 64))
(declare-fun cmp245.i_13_57 () (_ BitVec 1))
(declare-fun cmp.i246.i_13_113 () (_ BitVec 1))
(declare-fun cmp1.i248.i_13_116 () (_ BitVec 1))
(declare-fun cmp21.i.i_13_126 () (_ BitVec 1))
(declare-fun cmp40.i.i_13_131 () (_ BitVec 1))
(declare-fun cmp.i.i.i.i_13_179 () (_ BitVec 1))
(declare-fun cond17.i.i_13_123 () (_ BitVec 64))
(declare-fun i28.i.i.sink_13_154 () (_ BitVec 64))
(declare-fun cond36.i.i_13_129 () (_ BitVec 64))
(declare-fun i28.i.i_13_124 () (_ BitVec 64))
(declare-fun dst_reg_13_143 () (_ BitVec 32))
(declare-fun dst_reg_13_99 () (_ BitVec 32))
(declare-fun dst_reg_13_142 () (_ BitVec 64))
(declare-fun storemerge_13_110 () (_ BitVec 64))
(declare-fun dst_reg_13_141 () (_ BitVec 64))
(declare-fun cond53.i.i_13_133 () (_ BitVec 64))
(declare-fun dst_reg_13_140 () (_ BitVec 64))
(declare-fun dst_reg_13_96 () (_ BitVec 64))
(declare-fun dst_reg_13_139 () (_ BitVec 64))
(declare-fun dst_reg_13_138 () (_ BitVec 64))
(declare-fun dst_reg_13_94 () (_ BitVec 64))
(declare-fun dst_reg_13_137 () (_ BitVec 64))
(declare-fun dst_reg_13_93 () (_ BitVec 64))
(declare-fun dst_reg_13_136 () (_ BitVec 32))
(declare-fun dst_reg_13_92 () (_ BitVec 32))
(declare-fun dst_reg_13_135 () (_ BitVec 32))
(declare-fun dst_reg_13_91 () (_ BitVec 32))
(declare-fun dst_reg_13_134 () (_ BitVec 32))
(declare-fun dst_reg_13_90 () (_ BitVec 32))
(declare-fun src_reg_13_153 () (_ BitVec 32))
(declare-fun src_reg_13_109 () (_ BitVec 32))
(declare-fun src_reg_13_152 () (_ BitVec 64))
(declare-fun src_reg_13_108 () (_ BitVec 64))
(declare-fun src_reg_13_151 () (_ BitVec 64))
(declare-fun src_reg_13_107 () (_ BitVec 64))
(declare-fun src_reg_13_150 () (_ BitVec 64))
(declare-fun src_reg_13_106 () (_ BitVec 64))
(declare-fun src_reg_13_149 () (_ BitVec 64))
(declare-fun src_reg_13_105 () (_ BitVec 64))
(declare-fun src_reg_13_148 () (_ BitVec 64))
(declare-fun src_reg_13_104 () (_ BitVec 64))
(declare-fun src_reg_13_147 () (_ BitVec 64))
(declare-fun src_reg_13_103 () (_ BitVec 64))
(declare-fun src_reg_13_146 () (_ BitVec 32))
(declare-fun src_reg_13_102 () (_ BitVec 32))
(declare-fun src_reg_13_145 () (_ BitVec 32))
(declare-fun src_reg_13_101 () (_ BitVec 32))
(declare-fun src_reg_13_144 () (_ BitVec 32))
(declare-fun src_reg_13_100 () (_ BitVec 32))
(declare-fun dst_reg_13_97 () (_ BitVec 64))
(declare-fun i29.i.i_13_127 () (_ BitVec 64))
(declare-fun cond.i250.i_13_119 () (_ BitVec 64))
(declare-fun i27.i.i_13_121 () (_ BitVec 64))
(declare-fun i26.i.i_13_120 () (_ BitVec 64))
(declare-fun cmp12.i.i_13_122 () (_ BitVec 1))
(declare-fun i25.i.i_13_117 () (_ BitVec 64))
(declare-fun i.i245.i_13_111 () (_ BitVec 64))
(declare-fun cmp4.i.i_13_118 () (_ BitVec 1))
(declare-fun i24.i.i_13_114 () (_ BitVec 64))
(declare-fun cmp31.i.i_13_128 () (_ BitVec 1))
(declare-fun cmp48.i.i_13_132 () (_ BitVec 1))
(declare-fun cond46.i236.i_13_89 () (_ BitVec 64))
(declare-fun dst_reg_13_9 () (_ BitVec 32))
(declare-fun dst_reg_13_98 () (_ BitVec 64))
(declare-fun shr287.i_13_72 () (_ BitVec 64))
(declare-fun cond31.i231.i_13_86 () (_ BitVec 64))
(declare-fun cond19.i227.i_13_84 () (_ BitVec 64))
(declare-fun dst_reg_13_95 () (_ BitVec 64))
(declare-fun cond.i221.i_13_78 () (_ BitVec 64))
(declare-fun storemerge5.i_13_70 () (_ BitVec 64))
(declare-fun storemerge6.i_13_67 () (_ BitVec 64))
(declare-fun dst_reg_13_2 () (_ BitVec 32))
(declare-fun dst_reg_13_1 () (_ BitVec 32))
(declare-fun src_reg_13_19 () (_ BitVec 32))
(declare-fun src_reg_13_18 () (_ BitVec 64))
(declare-fun src_reg_13_17 () (_ BitVec 64))
(declare-fun src_reg_13_16 () (_ BitVec 64))
(declare-fun src_reg_13_15 () (_ BitVec 64))
(declare-fun src_reg_13_14 () (_ BitVec 64))
(declare-fun src_reg_13_13 () (_ BitVec 64))
(declare-fun src_reg_13_12 () (_ BitVec 32))
(declare-fun src_reg_13_11 () (_ BitVec 32))
(declare-fun cond46.i.i.i_13_44 () (_ BitVec 64))
(declare-fun or37.i234.i_13_87 () (_ BitVec 64))
(declare-fun cmp41.i235.i_13_88 () (_ BitVec 1))
(declare-fun shr285.i_13_71 () (_ BitVec 64))
(declare-fun cmp26.i230.i_13_85 () (_ BitVec 1))
(declare-fun or10.i225.i_13_82 () (_ BitVec 64))
(declare-fun i17.i223.i_13_79 () (_ BitVec 64))
(declare-fun cmp14.i226.i_13_83 () (_ BitVec 1))
(declare-fun and9.i224.i_13_81 () (_ BitVec 64))
(declare-fun cond19.i.i.i_13_38 () (_ BitVec 64))
(declare-fun or.i219.i_13_76 () (_ BitVec 64))
(declare-fun i.i213.i_13_73 () (_ BitVec 64))
(declare-fun cmp2.i220.i_13_77 () (_ BitVec 1))
(declare-fun and.i218.i_13_75 () (_ BitVec 64))
(declare-fun shr.i_13_64 () (_ BitVec 64))
(declare-fun cond31.i.i28.i_13_51 () (_ BitVec 64))
(declare-fun cond46.i.i33.i_13_53 () (_ BitVec 64))
(declare-fun cond31.i.i.i_13_41 () (_ BitVec 64))
(declare-fun .pn.i_13_69 () (_ BitVec 64))
(declare-fun and6.i.i.i_13_31 () (_ BitVec 64))
(declare-fun tobool.not.i.i_13_55 () (_ BitVec 1))
(declare-fun shr268.i_13_65 () (_ BitVec 64))
(declare-fun and.i.i.i_13_29 () (_ BitVec 64))
(declare-fun cond.i.i.i_13_34 () (_ BitVec 64))
(declare-fun dst_reg_13_164 () (_ BitVec 32))
(declare-fun dst_reg_13_163 () (_ BitVec 64))
(declare-fun dst_reg_13_162 () (_ BitVec 64))
(declare-fun dst_reg_13_161 () (_ BitVec 64))
(declare-fun dst_reg_13_160 () (_ BitVec 64))
(declare-fun dst_reg_13_159 () (_ BitVec 64))
(declare-fun dst_reg_13_158 () (_ BitVec 64))
(declare-fun dst_reg_13_157 () (_ BitVec 32))
(declare-fun dst_reg_13_156 () (_ BitVec 32))
(declare-fun dst_reg_13_155 () (_ BitVec 32))
(declare-fun src_reg_13_174 () (_ BitVec 32))
(declare-fun src_reg_13_173 () (_ BitVec 64))
(declare-fun src_reg_13_172 () (_ BitVec 64))
(declare-fun src_reg_13_171 () (_ BitVec 64))
(declare-fun src_reg_13_170 () (_ BitVec 64))
(declare-fun src_reg_13_169 () (_ BitVec 64))
(declare-fun src_reg_13_168 () (_ BitVec 64))
(declare-fun src_reg_13_167 () (_ BitVec 32))
(declare-fun src_reg_13_166 () (_ BitVec 32))
(declare-fun src_reg_13_165 () (_ BitVec 32))
(declare-fun i.i253.i_13_175 () (_ BitVec 64))
(declare-fun i5.i255.i_13_176 () (_ BitVec 64))
(declare-fun and6.i.i6.i_13_48 () (_ BitVec 64))
(declare-fun or10.i.i22.i_13_49 () (_ BitVec 64))
(declare-fun src_reg1.sroa.24.0.copyload_13_23 () (_ BitVec 64))
(declare-fun cmp41.i.i32.i_13_52 () (_ BitVec 1))
(declare-fun and.i.i5.i_13_46 () (_ BitVec 64))
(declare-fun src_reg1.sroa.21.0.copyload_13_22 () (_ BitVec 64))
(declare-fun cmp26.i.i27.i_13_50 () (_ BitVec 1))
(declare-fun src_reg1.sroa.11.0.copyload_13_24 () (_ BitVec 64))
(declare-fun src_reg1.sroa.3.0.copyload_13_25 () (_ BitVec 64))
(declare-fun or10.i.i.i_13_36 () (_ BitVec 64))
(declare-fun i19.i.i.i_13_42 () (_ BitVec 64))
(declare-fun cmp41.i.i.i_13_43 () (_ BitVec 1))
(declare-fun dst_reg_13_8 () (_ BitVec 64))
(declare-fun i18.i.i.i_13_39 () (_ BitVec 64))
(declare-fun cmp26.i.i.i_13_40 () (_ BitVec 1))
(declare-fun dst_reg_13_7 () (_ BitVec 64))
(declare-fun i17.i.i.i_13_35 () (_ BitVec 64))
(declare-fun cmp14.i.i.i_13_37 () (_ BitVec 1))
(declare-fun dst_reg_13_6 () (_ BitVec 64))
(declare-fun i.i.i.i_13_32 () (_ BitVec 64))
(declare-fun cmp2.i.i.i_13_33 () (_ BitVec 1))
(declare-fun dst_reg_13_5 () (_ BitVec 64))
(declare-fun i6.i.i_13_27 () (_ BitVec 64))
(declare-fun i4.i.i_13_26 () (_ BitVec 64))
(declare-fun dst_reg_13_4 () (_ BitVec 64))
(declare-fun dst_reg_13_3 () (_ BitVec 64))
(declare-fun src_reg_13_10 () (_ BitVec 32))
(declare-fun dst_reg_13_0 () (_ BitVec 32))
(declare-fun src_reg_13_267 () (_ BitVec 32))
(declare-fun src_reg_13_266 () (_ BitVec 64))
(declare-fun src_reg_13_265 () (_ BitVec 64))
(declare-fun src_reg_13_264 () (_ BitVec 64))
(declare-fun src_reg_13_263 () (_ BitVec 64))
(declare-fun src_reg_13_262 () (_ BitVec 64))
(declare-fun src_reg_13_261 () (_ BitVec 64))
(declare-fun src_reg_13_260 () (_ BitVec 32))
(declare-fun src_reg_13_259 () (_ BitVec 32))
(declare-fun src_reg_13_258 () (_ BitVec 32))
(declare-fun dst_reg_13_257 () (_ BitVec 32))
(declare-fun dst_reg_13_256 () (_ BitVec 64))
(declare-fun dst_reg_13_255 () (_ BitVec 64))
(declare-fun dst_reg_13_254 () (_ BitVec 64))
(declare-fun dst_reg_13_253 () (_ BitVec 64))
(declare-fun dst_reg_13_252 () (_ BitVec 64))
(declare-fun and.i1.i260.i_13_242 () (_ BitVec 64))
(declare-fun dst_reg_13_251 () (_ BitVec 64))
(declare-fun and4.i.i.i_13_245 () (_ BitVec 64))
(declare-fun dst_reg_13_250 () (_ BitVec 32))
(declare-fun dst_reg_13_249 () (_ BitVec 32))
(declare-fun dst_reg_13_248 () (_ BitVec 32))
(declare-fun retval.0.i.i.i.i_13_226 () (_ BitVec 32))
(declare-fun neg.i.i.i_13_244 () (_ BitVec 64))
(declare-fun or.i.i259.i_13_241 () (_ BitVec 64))
(declare-fun i11.i.i_13_240 () (_ BitVec 64))
(declare-fun retval.sroa.3.0.i.i.i_13_238 () (_ BitVec 64))
(declare-fun i9.i.i_13_239 () (_ BitVec 64))
(declare-fun retval.sroa.0.0.i.i.i_13_236 () (_ BitVec 64))
(declare-fun sub.i.i.i_13_233 () (_ BitVec 64))
(declare-fun cmp.i.i.i_13_228 () (_ BitVec 1))
(declare-fun and.i.i256.i_13_234 () (_ BitVec 64))
(declare-fun notmask.i.i.i_13_231 () (_ BitVec 64))
(declare-fun sh_prom.i.i.i_13_229 () (_ BitVec 64))
(assert (let ((a!1 (and (= cmp.i246.i_13_113 #b0)
                (or (= cmp245.i_13_57 #b0) (= cmp245.i_13_57 #b1))))
      (a!9 (=> (= cmp245.i_13_57 #b0)
               (and (= shr.i_13_64
                       (bvlshr cond.i.i.i_13_34 cond46.i.i33.i_13_53))
                    (= shr268.i_13_65
                       (bvlshr and.i.i.i_13_29 cond31.i.i28.i_13_51))
                    (ite (= tobool.not.i.i_13_55 #b1)
                         (= storemerge6.i_13_67 shr268.i_13_65)
                         (= storemerge6.i_13_67 #x0000000000000000))
                    (ite (= tobool.not.i.i_13_55 #b1)
                         (= .pn.i_13_69 and6.i.i.i_13_31)
                         (= .pn.i_13_69 #xffffffffffffffff))
                    (= storemerge5.i_13_70
                       (bvlshr .pn.i_13_69 cond31.i.i28.i_13_51))
                    (= shr285.i_13_71
                       (bvlshr cond31.i.i.i_13_41 cond46.i.i33.i_13_53))
                    (= shr287.i_13_72
                       (bvlshr cond46.i.i.i_13_44 cond31.i.i28.i_13_51))
                    (= shr.i_13_64 i.i213.i_13_73)
                    (= and.i218.i_13_75
                       (bvand storemerge5.i_13_70 #x8000000000000000))
                    (= or.i219.i_13_76
                       (bvor and.i218.i_13_75 storemerge6.i_13_67))
                    (ite (bvsgt i.i213.i_13_73 or.i219.i_13_76)
                         (= cmp2.i220.i_13_77 #b1)
                         (= cmp2.i220.i_13_77 #b0))
                    (ite (= cmp2.i220.i_13_77 #b1)
                         (= cond.i221.i_13_78 i.i213.i_13_73)
                         (= cond.i221.i_13_78 or.i219.i_13_76))
                    (= cond19.i.i.i_13_38 i17.i223.i_13_79)
                    (= and9.i224.i_13_81
                       (bvand storemerge5.i_13_70 #x7fffffffffffffff))
                    (= or10.i225.i_13_82
                       (bvor and9.i224.i_13_81 storemerge6.i_13_67))
                    (ite (bvslt i17.i223.i_13_79 or10.i225.i_13_82)
                         (= cmp14.i226.i_13_83 #b1)
                         (= cmp14.i226.i_13_83 #b0))
                    (ite (= cmp14.i226.i_13_83 #b1)
                         (= cond19.i227.i_13_84 i17.i223.i_13_79)
                         (= cond19.i227.i_13_84 or10.i225.i_13_82))
                    (ite (bvugt shr285.i_13_71 storemerge6.i_13_67)
                         (= cmp26.i230.i_13_85 #b1)
                         (= cmp26.i230.i_13_85 #b0))
                    (ite (= cmp26.i230.i_13_85 #b1)
                         (= cond31.i231.i_13_86 shr285.i_13_71)
                         (= cond31.i231.i_13_86 storemerge6.i_13_67))
                    (= or37.i234.i_13_87
                       (bvor storemerge5.i_13_70 storemerge6.i_13_67))
                    (ite (bvult shr287.i_13_72 or37.i234.i_13_87)
                         (= cmp41.i235.i_13_88 #b1)
                         (= cmp41.i235.i_13_88 #b0))
                    (ite (= cmp41.i235.i_13_88 #b1)
                         (= cond46.i236.i_13_89 shr287.i_13_72)
                         (= cond46.i236.i_13_89 or37.i234.i_13_87)))))
      (a!10 (and (= dst_reg_13_95 i.i245.i_13_111)
                 (ite (bvsgt i.i245.i_13_111 #xffffffffffffffff)
                      (= cmp.i246.i_13_113 #b1)
                      (= cmp.i246.i_13_113 #b0))
                 (=> (= cmp245.i_13_57 #b1)
                     (and (= #x00000001 src_reg_13_100)
                          (= src_reg_13_11 src_reg_13_101)
                          (= src_reg_13_12 src_reg_13_102)
                          (= src_reg_13_13 src_reg_13_103)
                          (= src_reg_13_14 src_reg_13_104)
                          (= src_reg_13_15 src_reg_13_105)
                          (= src_reg_13_16 src_reg_13_106)
                          (= src_reg_13_17 src_reg_13_107)
                          (= src_reg_13_18 src_reg_13_108)
                          (= src_reg_13_19 src_reg_13_109)
                          (= #x00000001 dst_reg_13_90)
                          (= dst_reg_13_1 dst_reg_13_91)
                          (= dst_reg_13_2 dst_reg_13_92)
                          (= #x0000000000000000 dst_reg_13_93)
                          (= #xffffffffffffffff dst_reg_13_94)
                          (= #x8000000000000000 dst_reg_13_95)
                          (= #x7fffffffffffffff dst_reg_13_96)
                          (= #x0000000000000000 dst_reg_13_97)
                          (= cond46.i.i.i_13_44 dst_reg_13_98)
                          (= dst_reg_13_9 dst_reg_13_99)))
                 (=> (= cmp245.i_13_57 #b0)
                     (and (= #x00000001 src_reg_13_100)
                          (= src_reg_13_11 src_reg_13_101)
                          (= src_reg_13_12 src_reg_13_102)
                          (= src_reg_13_13 src_reg_13_103)
                          (= src_reg_13_14 src_reg_13_104)
                          (= src_reg_13_15 src_reg_13_105)
                          (= src_reg_13_16 src_reg_13_106)
                          (= src_reg_13_17 src_reg_13_107)
                          (= src_reg_13_18 src_reg_13_108)
                          (= src_reg_13_19 src_reg_13_109)
                          (= #x00000001 dst_reg_13_90)
                          (= dst_reg_13_1 dst_reg_13_91)
                          (= dst_reg_13_2 dst_reg_13_92)
                          (= storemerge6.i_13_67 dst_reg_13_93)
                          (= storemerge5.i_13_70 dst_reg_13_94)
                          (= cond.i221.i_13_78 dst_reg_13_95)
                          (= cond19.i227.i_13_84 dst_reg_13_96)
                          (= cond31.i231.i_13_86 dst_reg_13_97)
                          (= shr287.i_13_72 dst_reg_13_98)
                          (= dst_reg_13_9 dst_reg_13_99)))
                 (=> (= cmp245.i_13_57 #b0)
                     (= storemerge_13_110 cond46.i236.i_13_89))
                 (=> (= cmp245.i_13_57 #b1)
                     (= storemerge_13_110 #xffffffffffffffff)))))
(let ((a!2 (and (= cmp40.i.i_13_131 #b1)
                (and (= cmp21.i.i_13_126 #b0)
                     (and (= cmp1.i248.i_13_116 #b0) a!1))))
      (a!3 (or (and (= cmp1.i248.i_13_116 #b1) a!1)
               (and (= cmp.i246.i_13_113 #b1)
                    (or (= cmp245.i_13_57 #b0) (= cmp245.i_13_57 #b1)))))
      (a!5 (and (= cmp40.i.i_13_131 #b0)
                (and (= cmp21.i.i_13_126 #b0)
                     (and (= cmp1.i248.i_13_116 #b0) a!1))))
      (a!11 (=> a!1
                (and (= dst_reg_13_96 i24.i.i_13_114)
                     (ite (bvslt i24.i.i_13_114 #x0000000000000000)
                          (= cmp1.i248.i_13_116 #b1)
                          (= cmp1.i248.i_13_116 #b0)))))
      (a!13 (=> (and (= cmp21.i.i_13_126 #b1)
                     (and (= cmp1.i248.i_13_116 #b0) a!1))
                (and (ite (bvult i24.i.i_13_114 i28.i.i_13_124)
                          (= cmp31.i.i_13_128 #b1)
                          (= cmp31.i.i_13_128 #b0))
                     (ite (= cmp31.i.i_13_128 #b1)
                          (= cond36.i.i_13_129 i24.i.i_13_114)
                          (= cond36.i.i_13_129 i28.i.i_13_124)))))
      (a!15 (=> (and (= cmp1.i248.i_13_116 #b0) a!1)
                (and (= storemerge_13_110 i28.i.i_13_124)
                     (ite (bvsgt i28.i.i_13_124 #xffffffffffffffff)
                          (= cmp21.i.i_13_126 #b1)
                          (= cmp21.i.i_13_126 #b0))
                     (= dst_reg_13_97 i29.i.i_13_127))))
      (a!16 (=> (and (= cmp21.i.i_13_126 #b0)
                     (and (= cmp1.i248.i_13_116 #b0) a!1))
                (and (ite (bvslt i29.i.i_13_127 #x0000000000000000)
                          (= cmp40.i.i_13_131 #b1)
                          (= cmp40.i.i_13_131 #b0)))))
      (a!17 (=> (and (= cmp21.i.i_13_126 #b1)
                     (and (= cmp1.i248.i_13_116 #b0) a!1))
                (and (= src_reg_13_100 src_reg_13_144)
                     (= src_reg_13_101 src_reg_13_145)
                     (= src_reg_13_102 src_reg_13_146)
                     (= src_reg_13_103 src_reg_13_147)
                     (= src_reg_13_104 src_reg_13_148)
                     (= src_reg_13_105 src_reg_13_149)
                     (= src_reg_13_106 src_reg_13_150)
                     (= src_reg_13_107 src_reg_13_151)
                     (= src_reg_13_108 src_reg_13_152)
                     (= src_reg_13_109 src_reg_13_153)
                     (= dst_reg_13_90 dst_reg_13_134)
                     (= dst_reg_13_91 dst_reg_13_135)
                     (= dst_reg_13_92 dst_reg_13_136)
                     (= dst_reg_13_93 dst_reg_13_137)
                     (= dst_reg_13_94 dst_reg_13_138)
                     (= i29.i.i_13_127 dst_reg_13_139)
                     (= dst_reg_13_96 dst_reg_13_140)
                     (= dst_reg_13_97 dst_reg_13_141)
                     (= cond36.i.i_13_129 dst_reg_13_142)
                     (= dst_reg_13_99 dst_reg_13_143))))
      (a!18 (=> (and (= cmp21.i.i_13_126 #b1)
                     (and (= cmp1.i248.i_13_116 #b0) a!1))
                (= i28.i.i.sink_13_154 cond36.i.i_13_129))))
(let ((a!4 (or a!2
               (and (= cmp21.i.i_13_126 #b1)
                    (and (= cmp1.i248.i_13_116 #b0) a!1))
               a!3))
      (a!12 (=> a!2
                (and (ite (bvugt i.i245.i_13_111 i29.i.i_13_127)
                          (= cmp48.i.i_13_132 #b1)
                          (= cmp48.i.i_13_132 #b0))
                     (ite (= cmp48.i.i_13_132 #b1)
                          (= cond53.i.i_13_133 i.i245.i_13_111)
                          (= cond53.i.i_13_133 i29.i.i_13_127)))))
      (a!14 (=> a!3
                (and (= dst_reg_13_97 i25.i.i_13_117)
                     (ite (bvugt i.i245.i_13_111 i25.i.i_13_117)
                          (= cmp4.i.i_13_118 #b1)
                          (= cmp4.i.i_13_118 #b0))
                     (ite (= cmp4.i.i_13_118 #b1)
                          (= cond.i250.i_13_119 i.i245.i_13_111)
                          (= cond.i250.i_13_119 i25.i.i_13_117))
                     (= dst_reg_13_96 i26.i.i_13_120)
                     (= storemerge_13_110 i27.i.i_13_121)
                     (ite (bvult i26.i.i_13_120 i27.i.i_13_121)
                          (= cmp12.i.i_13_122 #b1)
                          (= cmp12.i.i_13_122 #b0))
                     (ite (= cmp12.i.i_13_122 #b1)
                          (= cond17.i.i_13_123 i26.i.i_13_120)
                          (= cond17.i.i_13_123 i27.i.i_13_121)))))
      (a!19 (and (=> a!3
                     (and (= src_reg_13_100 src_reg_13_144)
                          (= src_reg_13_101 src_reg_13_145)
                          (= src_reg_13_102 src_reg_13_146)
                          (= src_reg_13_103 src_reg_13_147)
                          (= src_reg_13_104 src_reg_13_148)
                          (= src_reg_13_105 src_reg_13_149)
                          (= src_reg_13_106 src_reg_13_150)
                          (= src_reg_13_107 src_reg_13_151)
                          (= src_reg_13_108 src_reg_13_152)
                          (= src_reg_13_109 src_reg_13_153)
                          (= dst_reg_13_90 dst_reg_13_134)
                          (= dst_reg_13_91 dst_reg_13_135)
                          (= dst_reg_13_92 dst_reg_13_136)
                          (= dst_reg_13_93 dst_reg_13_137)
                          (= dst_reg_13_94 dst_reg_13_138)
                          (= cond.i250.i_13_119 dst_reg_13_139)
                          (= dst_reg_13_96 dst_reg_13_140)
                          (= cond.i250.i_13_119 dst_reg_13_141)
                          (= cond17.i.i_13_123 dst_reg_13_142)
                          (= dst_reg_13_99 dst_reg_13_143)))
                 a!17
                 (=> a!2
                     (and (= src_reg_13_100 src_reg_13_144)
                          (= src_reg_13_101 src_reg_13_145)
                          (= src_reg_13_102 src_reg_13_146)
                          (= src_reg_13_103 src_reg_13_147)
                          (= src_reg_13_104 src_reg_13_148)
                          (= src_reg_13_105 src_reg_13_149)
                          (= src_reg_13_106 src_reg_13_150)
                          (= src_reg_13_107 src_reg_13_151)
                          (= src_reg_13_108 src_reg_13_152)
                          (= src_reg_13_109 src_reg_13_153)
                          (= dst_reg_13_90 dst_reg_13_134)
                          (= dst_reg_13_91 dst_reg_13_135)
                          (= dst_reg_13_92 dst_reg_13_136)
                          (= dst_reg_13_93 dst_reg_13_137)
                          (= dst_reg_13_94 dst_reg_13_138)
                          (= cond53.i.i_13_133 dst_reg_13_139)
                          (= dst_reg_13_96 dst_reg_13_140)
                          (= cond53.i.i_13_133 dst_reg_13_141)
                          (= storemerge_13_110 dst_reg_13_142)
                          (= dst_reg_13_99 dst_reg_13_143)))
                 (=> a!2 (= i28.i.i.sink_13_154 i28.i.i_13_124))
                 a!18
                 (=> a!3 (= i28.i.i.sink_13_154 cond17.i.i_13_123)))))
(let ((a!6 (and (ite (bvugt retval.0.i.i.i.i_13_226 #x0000003f)
                     (= cmp.i.i.i_13_228 #b1)
                     (= cmp.i.i.i_13_228 #b0))
                (= sh_prom.i.i.i_13_229
                   ((_ zero_extend 32) retval.0.i.i.i.i_13_226))
                (= notmask.i.i.i_13_231
                   (bvshl #xffffffffffffffff sh_prom.i.i.i_13_229))
                (= sub.i.i.i_13_233
                   (bvxor notmask.i.i.i_13_231 #xffffffffffffffff))
                (= and.i.i256.i_13_234
                   (bvand notmask.i.i.i_13_231 i.i253.i_13_175))
                (ite (= cmp.i.i.i_13_228 #b1)
                     (= retval.sroa.0.0.i.i.i_13_236 #x0000000000000000)
                     (= retval.sroa.0.0.i.i.i_13_236 and.i.i256.i_13_234))
                (ite (= cmp.i.i.i_13_228 #b1)
                     (= retval.sroa.3.0.i.i.i_13_238 #xffffffffffffffff)
                     (= retval.sroa.3.0.i.i.i_13_238 sub.i.i.i_13_233))
                (= dst_reg_13_93 i9.i.i_13_239)
                (= dst_reg_13_94 i11.i.i_13_240)
                (= or.i.i259.i_13_241
                   (bvor retval.sroa.0.0.i.i.i_13_236 i9.i.i_13_239))
                (= and.i1.i260.i_13_242
                   (bvand retval.sroa.3.0.i.i.i_13_238 i11.i.i_13_240))
                (= neg.i.i.i_13_244
                   (bvxor and.i1.i260.i_13_242 #xffffffffffffffff))
                (= and4.i.i.i_13_245
                   (bvand or.i.i259.i_13_241 neg.i.i.i_13_244))
                (=> (and (= cmp.i.i.i.i_13_179 #b0) (or a!4 a!5))
                    (= retval.0.i.i.i.i_13_226 phi.bo_13_225))
                (=> (and (= cmp.i.i.i.i_13_179 #b1) (or a!4 a!5))
                    (= retval.0.i.i.i.i_13_226 #x00000000))
                (= dst_reg_13_155 dst_reg_13_248)
                (= dst_reg_13_156 dst_reg_13_249)
                (= dst_reg_13_157 dst_reg_13_250)
                (= and4.i.i.i_13_245 dst_reg_13_251)
                (= and.i1.i260.i_13_242 dst_reg_13_252)
                (= dst_reg_13_160 dst_reg_13_253)
                (= dst_reg_13_161 dst_reg_13_254)
                (= dst_reg_13_162 dst_reg_13_255)
                (= dst_reg_13_163 dst_reg_13_256)
                (= dst_reg_13_164 dst_reg_13_257)
                (= src_reg_13_165 src_reg_13_258)
                (= src_reg_13_166 src_reg_13_259)
                (= src_reg_13_167 src_reg_13_260)
                (= src_reg_13_168 src_reg_13_261)
                (= src_reg_13_169 src_reg_13_262)
                (= src_reg_13_170 src_reg_13_263)
                (= src_reg_13_171 src_reg_13_264)
                (= src_reg_13_172 src_reg_13_265)
                (= src_reg_13_173 src_reg_13_266)
                (= src_reg_13_174 src_reg_13_267)))
      (a!8 (and (= dst_reg_13_162 i.i253.i_13_175)
                (= dst_reg_13_163 i5.i255.i_13_176)
                (= xor.i.i.i_13_177 (bvxor i5.i255.i_13_176 i.i253.i_13_175))
                (ite (= xor.i.i.i_13_177 #x0000000000000000)
                     (= cmp.i.i.i.i_13_179 #b1)
                     (= cmp.i.i.i.i_13_179 #b0))
                (=> a!4
                    (and (= src_reg_13_144 src_reg_13_165)
                         (= src_reg_13_145 src_reg_13_166)
                         (= src_reg_13_146 src_reg_13_167)
                         (= src_reg_13_147 src_reg_13_168)
                         (= src_reg_13_148 src_reg_13_169)
                         (= src_reg_13_149 src_reg_13_170)
                         (= src_reg_13_150 src_reg_13_171)
                         (= src_reg_13_151 src_reg_13_172)
                         (= src_reg_13_152 src_reg_13_173)
                         (= src_reg_13_153 src_reg_13_174)
                         (= dst_reg_13_134 dst_reg_13_155)
                         (= dst_reg_13_135 dst_reg_13_156)
                         (= dst_reg_13_136 dst_reg_13_157)
                         (= dst_reg_13_137 dst_reg_13_158)
                         (= dst_reg_13_138 dst_reg_13_159)
                         (= dst_reg_13_139 dst_reg_13_160)
                         (= i28.i.i.sink_13_154 dst_reg_13_161)
                         (= dst_reg_13_141 dst_reg_13_162)
                         (= dst_reg_13_142 dst_reg_13_163)
                         (= dst_reg_13_143 dst_reg_13_164)))
                (=> a!5
                    (and (= src_reg_13_100 src_reg_13_165)
                         (= src_reg_13_101 src_reg_13_166)
                         (= src_reg_13_102 src_reg_13_167)
                         (= src_reg_13_103 src_reg_13_168)
                         (= src_reg_13_104 src_reg_13_169)
                         (= src_reg_13_105 src_reg_13_170)
                         (= src_reg_13_106 src_reg_13_171)
                         (= src_reg_13_107 src_reg_13_172)
                         (= src_reg_13_108 src_reg_13_173)
                         (= src_reg_13_109 src_reg_13_174)
                         (= dst_reg_13_90 dst_reg_13_155)
                         (= dst_reg_13_91 dst_reg_13_156)
                         (= dst_reg_13_92 dst_reg_13_157)
                         (= dst_reg_13_93 dst_reg_13_158)
                         (= dst_reg_13_94 dst_reg_13_159)
                         (= dst_reg_13_95 dst_reg_13_160)
                         (= dst_reg_13_96 dst_reg_13_161)
                         (= dst_reg_13_97 dst_reg_13_162)
                         (= storemerge_13_110 dst_reg_13_163)
                         (= dst_reg_13_99 dst_reg_13_164)))))
      (a!20 (=> (and (= cmp.i.i.i.i_13_179 #b0) (or a!4 a!5))
                (and (ite (bvult xor.i.i.i_13_177 #x0000000100000000)
                          (= tobool.not.i.i.i.i.i_13_181 #b1)
                          (= tobool.not.i.i.i.i.i_13_181 #b0))
                     (= shl.i.i.i.i.i_13_183
                        (bvshl xor.i.i.i_13_177 #x0000000000000020))
                     (ite (= tobool.not.i.i.i.i.i_13_181 #b1)
                          (= spec.select.i.i.i.i.i_13_184 shl.i.i.i.i.i_13_183)
                          (= spec.select.i.i.i.i.i_13_184 xor.i.i.i_13_177))
                     (ite (= tobool.not.i.i.i.i.i_13_181 #b1)
                          (= spec.select17.i.i.i.i.i_13_187 #x0000001f)
                          (= spec.select17.i.i.i.i.i_13_187 #x0000003f))
                     (ite (bvult spec.select.i.i.i.i.i_13_184
                                 #x0001000000000000)
                          (= tobool2.not.i.i.i.i.i_13_189 #b1)
                          (= tobool2.not.i.i.i.i.i_13_189 #b0))
                     (= sub4.i.i.i.i.i_13_191
                        (bvadd spec.select17.i.i.i.i.i_13_187 #xfffffff0))
                     (= shl5.i.i.i.i.i_13_193
                        (bvshl spec.select.i.i.i.i.i_13_184 #x0000000000000010))
                     (ite (= tobool2.not.i.i.i.i.i_13_189 #b1)
                          (= word.addr.1.i.i.i.i.i_13_194 shl5.i.i.i.i.i_13_193)
                          (= word.addr.1.i.i.i.i.i_13_194
                             spec.select.i.i.i.i.i_13_184))
                     (ite (= tobool2.not.i.i.i.i.i_13_189 #b1)
                          (= num.1.i.i.i.i.i_13_195 sub4.i.i.i.i.i_13_191)
                          (= num.1.i.i.i.i.i_13_195
                             spec.select17.i.i.i.i.i_13_187))
                     (ite (bvult word.addr.1.i.i.i.i.i_13_194
                                 #x0100000000000000)
                          (= tobool8.not.i.i.i.i.i_13_197 #b1)
                          (= tobool8.not.i.i.i.i.i_13_197 #b0))
                     (= sub10.i.i.i.i.i_13_199
                        (bvadd num.1.i.i.i.i.i_13_195 #xfffffff8))
                     (= shl11.i.i.i.i.i_13_201
                        (bvshl word.addr.1.i.i.i.i.i_13_194 #x0000000000000008))
                     (ite (= tobool8.not.i.i.i.i.i_13_197 #b1)
                          (= word.addr.2.i.i.i.i.i_13_202
                             shl11.i.i.i.i.i_13_201)
                          (= word.addr.2.i.i.i.i.i_13_202
                             word.addr.1.i.i.i.i.i_13_194))
                     (ite (= tobool8.not.i.i.i.i.i_13_197 #b1)
                          (= num.2.i.i.i.i.i_13_203 sub10.i.i.i.i.i_13_199)
                          (= num.2.i.i.i.i.i_13_203 num.1.i.i.i.i.i_13_195))
                     (ite (bvult word.addr.2.i.i.i.i.i_13_202
                                 #x1000000000000000)
                          (= tobool14.not.i.i.i.i.i_13_205 #b1)
                          (= tobool14.not.i.i.i.i.i_13_205 #b0))
                     (= sub16.i.i.i.i.i_13_207
                        (bvadd num.2.i.i.i.i.i_13_203 #xfffffffc))
                     (= shl17.i.i.i.i.i_13_209
                        (bvshl word.addr.2.i.i.i.i.i_13_202 #x0000000000000004))
                     (ite (= tobool14.not.i.i.i.i.i_13_205 #b1)
                          (= word.addr.3.i.i.i.i.i_13_210
                             shl17.i.i.i.i.i_13_209)
                          (= word.addr.3.i.i.i.i.i_13_210
                             word.addr.2.i.i.i.i.i_13_202))
                     (ite (= tobool14.not.i.i.i.i.i_13_205 #b1)
                          (= num.3.i.i.i.i.i_13_211 sub16.i.i.i.i.i_13_207)
                          (= num.3.i.i.i.i.i_13_211 num.2.i.i.i.i.i_13_203))
                     (ite (bvult word.addr.3.i.i.i.i.i_13_210
                                 #x4000000000000000)
                          (= tobool20.not.i.i.i.i.i_13_213 #b1)
                          (= tobool20.not.i.i.i.i.i_13_213 #b0))
                     (= sub22.i.i.i.i.i_13_215
                        (bvadd num.3.i.i.i.i.i_13_211 #x000000fe))
                     (= shl23.i.i.i.i.i_13_217
                        (bvshl word.addr.3.i.i.i.i.i_13_210 #x0000000000000002))
                     (ite (= tobool20.not.i.i.i.i.i_13_213 #b1)
                          (= word.addr.4.i.i.i.i.i_13_218
                             shl23.i.i.i.i.i_13_217)
                          (= word.addr.4.i.i.i.i.i_13_218
                             word.addr.3.i.i.i.i.i_13_210))
                     (ite (= tobool20.not.i.i.i.i.i_13_213 #b1)
                          (= num.4.i.i.i.i.i_13_219 sub22.i.i.i.i.i_13_215)
                          (= num.4.i.i.i.i.i_13_219 num.3.i.i.i.i.i_13_211))
                     (= word.addr.4.lobit.i.i.i.i.i.neg_13_221
                        (bvlshr word.addr.4.i.i.i.i.i_13_218 #x000000000000003f))
                     (= i.i.i.i.i.i.neg_13_222
                        ((_ extract 31 0)
                          word.addr.4.lobit.i.i.i.i.i.neg_13_221))
                     (= conv.i.i.i.i_13_223
                        (bvadd num.4.i.i.i.i.i_13_219 i.i.i.i.i.i.neg_13_222))
                     (= phi.bo_13_225 (bvand conv.i.i.i.i_13_223 #x000000ff))))))
(let ((a!7 (=> (or (and (= cmp.i.i.i.i_13_179 #b0) (or a!4 a!5))
                   (and (= cmp.i.i.i.i_13_179 #b1) (or a!4 a!5)))
               a!6)))
  (and a!7
       (= dst_reg_13_0 dst_reg_13_0)
       (= dst_reg_13_1 dst_reg_13_1)
       (= dst_reg_13_2 dst_reg_13_2)
       (= dst_reg_13_3 dst_reg_13_3)
       (= dst_reg_13_4 dst_reg_13_4)
       (= dst_reg_13_5 dst_reg_13_5)
       (= dst_reg_13_6 dst_reg_13_6)
       (= dst_reg_13_7 dst_reg_13_7)
       (= dst_reg_13_8 dst_reg_13_8)
       (= dst_reg_13_9 dst_reg_13_9)
       (= src_reg_13_10 src_reg_13_10)
       (= src_reg_13_11 src_reg_13_11)
       (= src_reg_13_12 src_reg_13_12)
       (= src_reg_13_13 src_reg_13_13)
       (= src_reg_13_14 src_reg_13_14)
       (= src_reg_13_15 src_reg_13_15)
       (= src_reg_13_16 src_reg_13_16)
       (= src_reg_13_17 src_reg_13_17)
       (= src_reg_13_18 src_reg_13_18)
       (= src_reg_13_19 src_reg_13_19)
       (= src_reg_13_17 src_reg1.sroa.21.0.copyload_13_22)
       (= src_reg_13_18 src_reg1.sroa.24.0.copyload_13_23)
       (= src_reg_13_14 src_reg1.sroa.11.0.copyload_13_24)
       (= src_reg_13_13 src_reg1.sroa.3.0.copyload_13_25)
       (= dst_reg_13_3 i4.i.i_13_26)
       (= dst_reg_13_4 i6.i.i_13_27)
       (= and.i.i.i_13_29 (bvand i4.i.i_13_26 #x00000000ffffffff))
       (= and6.i.i.i_13_31 (bvand i6.i.i_13_27 #x00000000ffffffff))
       (= dst_reg_13_5 i.i.i.i_13_32)
       (ite (bvsgt i.i.i.i_13_32 and.i.i.i_13_29)
            (= cmp2.i.i.i_13_33 #b1)
            (= cmp2.i.i.i_13_33 #b0))
       (ite (= cmp2.i.i.i_13_33 #b1)
            (= cond.i.i.i_13_34 i.i.i.i_13_32)
            (= cond.i.i.i_13_34 and.i.i.i_13_29))
       (= dst_reg_13_6 i17.i.i.i_13_35)
       (= or10.i.i.i_13_36 (bvor and6.i.i.i_13_31 and.i.i.i_13_29))
       (ite (bvslt i17.i.i.i_13_35 or10.i.i.i_13_36)
            (= cmp14.i.i.i_13_37 #b1)
            (= cmp14.i.i.i_13_37 #b0))
       (ite (= cmp14.i.i.i_13_37 #b1)
            (= cond19.i.i.i_13_38 i17.i.i.i_13_35)
            (= cond19.i.i.i_13_38 or10.i.i.i_13_36))
       (= dst_reg_13_7 i18.i.i.i_13_39)
       (ite (bvugt i18.i.i.i_13_39 and.i.i.i_13_29)
            (= cmp26.i.i.i_13_40 #b1)
            (= cmp26.i.i.i_13_40 #b0))
       (ite (= cmp26.i.i.i_13_40 #b1)
            (= cond31.i.i.i_13_41 i18.i.i.i_13_39)
            (= cond31.i.i.i_13_41 and.i.i.i_13_29))
       (= dst_reg_13_8 i19.i.i.i_13_42)
       (ite (bvult i19.i.i.i_13_42 or10.i.i.i_13_36)
            (= cmp41.i.i.i_13_43 #b1)
            (= cmp41.i.i.i_13_43 #b0))
       (ite (= cmp41.i.i.i_13_43 #b1)
            (= cond46.i.i.i_13_44 i19.i.i.i_13_42)
            (= cond46.i.i.i_13_44 or10.i.i.i_13_36))
       (= and.i.i5.i_13_46
          (bvand src_reg1.sroa.3.0.copyload_13_25 #x00000000ffffffff))
       (= and6.i.i6.i_13_48
          (bvand src_reg1.sroa.11.0.copyload_13_24 #x00000000ffffffff))
       (= or10.i.i22.i_13_49 (bvor and.i.i5.i_13_46 and6.i.i6.i_13_48))
       (ite (bvugt src_reg1.sroa.21.0.copyload_13_22 and.i.i5.i_13_46)
            (= cmp26.i.i27.i_13_50 #b1)
            (= cmp26.i.i27.i_13_50 #b0))
       (ite (= cmp26.i.i27.i_13_50 #b1)
            (= cond31.i.i28.i_13_51 src_reg1.sroa.21.0.copyload_13_22)
            (= cond31.i.i28.i_13_51 and.i.i5.i_13_46))
       (ite (bvult src_reg1.sroa.24.0.copyload_13_23 or10.i.i22.i_13_49)
            (= cmp41.i.i32.i_13_52 #b1)
            (= cmp41.i.i32.i_13_52 #b0))
       (ite (= cmp41.i.i32.i_13_52 #b1)
            (= cond46.i.i33.i_13_53 src_reg1.sroa.24.0.copyload_13_23)
            (= cond46.i.i33.i_13_53 or10.i.i22.i_13_49))
       (ite (= and6.i.i6.i_13_48 #x0000000000000000)
            (= tobool.not.i.i_13_55 #b1)
            (= tobool.not.i.i_13_55 #b0))
       (ite (bvugt cond46.i.i33.i_13_53 #x000000000000003f)
            (= cmp245.i_13_57 #b1)
            (= cmp245.i_13_57 #b0))
       (=> (or a!4 a!5) a!8)
       a!9
       (=> (or (= cmp245.i_13_57 #b0) (= cmp245.i_13_57 #b1)) a!10)
       a!11
       a!12
       a!13
       a!14
       a!15
       a!16
       (=> a!4 a!19)
       a!20)))))))

;{"dst_reg":["dst_reg_13_0",[""],"dst_reg_13_1","dst_reg_13_2",["dst_reg_13_3","dst_reg_13_4"],"dst_reg_13_5","dst_reg_13_6","dst_reg_13_7","dst_reg_13_8","dst_reg_13_9"],"src_reg":["src_reg_13_10",[""],"src_reg_13_11","src_reg_13_12",["src_reg_13_13","src_reg_13_14"],"src_reg_13_15","src_reg_13_16","src_reg_13_17","src_reg_13_18","src_reg_13_19"]}
;{"dst_reg":["dst_reg_13_248",[""],"dst_reg_13_249","dst_reg_13_250",["dst_reg_13_251","dst_reg_13_252"],"dst_reg_13_253","dst_reg_13_254","dst_reg_13_255","dst_reg_13_256","dst_reg_13_257"],"src_reg":["src_reg_13_258",[""],"src_reg_13_259","src_reg_13_260",["src_reg_13_261","src_reg_13_262"],"src_reg_13_263","src_reg_13_264","src_reg_13_265","src_reg_13_266","src_reg_13_267"]}
